* #variable= 64 #constraint= 31
min: +20 x1 +18 x2 +25 x3 +20 x4 +28 x5 +6 x6 +18 x7 +28 x8 +34 x9 +25 x10 +6 x11 +34 x12 ;

+20 x1 +18 x2 +25 x3 +20 x4 +28 x5 +6 x6 +18 x7 +28 x8 +34 x9 +25 x10 +6 x11 +34 x12 >= 0 ;

+1 x1 +1 x2 +1 x3 = 1 ;
+1 x4 +1 x5 +1 x6 = 1 ;
+1 x7 +1 x8 +1 x9 = 1 ;
+1 x10 +1 x11 +1 x12 = 1 ;

+1 x4 +1 x7 +1 x10 = 1 ;
+1 x1 +1 x8 +1 x11 = 1 ;
+1 x2 +1 x5 +1 x12 = 1 ;
+1 x3 +1 x6 +1 x9 = 1 ;

+1 x13 +2 x14 +4 x15 +8 x16  >= 0 ;
+1 x17 +2 x18 +4 x19 +8 x20  >= 0 ;
+1 x21 +2 x22 +4 x23 +8 x24  >= 0 ;
+1 x25 +2 x26 +4 x27 +8 x28  >= 0 ;


+1 x29 +2 x30 +4 x31 +8 x32  >= 0 ;
+1 x13 +2 x14 +4 x15 +8 x16 -1 x17 -2 x18 -4 x19 -8 x20 +4 x1 +1 x29 +2 x30 +4 x31 +8 x32  = 3 ;

+1 x33 +2 x34 +4 x35 +8 x36  >= 0 ;
+1 x13 +2 x14 +4 x15 +8 x16 -1 x21 -2 x22 -4 x23 -8 x24 +4 x2 +1 x33 +2 x34 +4 x35 +8 x36  = 3 ;

+1 x37 +2 x38 +4 x39 +8 x40  >= 0 ;
+1 x13 +2 x14 +4 x15 +8 x16 -1 x25 -2 x26 -4 x27 -8 x28 +4 x3 +1 x37 +2 x38 +4 x39 +8 x40  = 3 ;

+1 x41 +2 x42 +4 x43 +8 x44  >= 0 ;
+1 x17 +2 x18 +4 x19 +8 x20 -1 x13 -2 x14 -4 x15 -8 x16 +4 x4 +1 x41 +2 x42 +4 x43 +8 x44  = 3 ;

+1 x45 +2 x46 +4 x47 +8 x48  >= 0 ;
+1 x17 +2 x18 +4 x19 +8 x20 -1 x21 -2 x22 -4 x23 -8 x24 +4 x5 +1 x45 +2 x46 +4 x47 +8 x48  = 3 ;

+1 x49 +2 x50 +4 x51 +8 x52  >= 0 ;
+1 x17 +2 x18 +4 x19 +8 x20 -1 x25 -2 x26 -4 x27 -8 x28 +4 x6 +1 x49 +2 x50 +4 x51 +8 x52  = 3 ;

+1 x53 +2 x54 +4 x55 +8 x56  >= 0 ;
+1 x21 +2 x22 +4 x23 +8 x24 -1 x13 -2 x14 -4 x15 -8 x16 +4 x7 +1 x53 +2 x54 +4 x55 +8 x56  = 3 ;

+1 x57 +2 x58 +4 x59 +8 x60  >= 0 ;
+1 x21 +2 x22 +4 x23 +8 x24 -1 x17 -2 x18 -4 x19 -8 x20 +4 x8 +1 x57 +2 x58 +4 x59 +8 x60  = 3 ;

+1 x61 +2 x62 +4 x63 +8 x64  >= 0 ;
+1 x21 +2 x22 +4 x23 +8 x24 -1 x25 -2 x26 -4 x27 -8 x28 +4 x9 +1 x61 +2 x62 +4 x63 +8 x64  = 3 ;